solution status: optimal solution found
objective value:                     236721.923572965
d11(0,0)                                            1 	(obj:0)
d11(2,3)                                            1 	(obj:0)
d11(2,4)                                            1 	(obj:0)
d11(2,5)                                            1 	(obj:0)
d11(2,6)                                            1 	(obj:0)
d11(3,7)                                            1 	(obj:0)
d11(3,9)                                            1 	(obj:0)
d11(3,11)                                           1 	(obj:0)
d11(3,13)                                           1 	(obj:0)
d11(4,15)                                           1 	(obj:0)
d11(4,17)                                           1 	(obj:0)
d11(4,19)                                           1 	(obj:0)
d11(4,21)                                           1 	(obj:0)
d11(4,23)                                           1 	(obj:0)
d11(4,25)                                           1 	(obj:0)
d11(4,27)                                           1 	(obj:0)
d11(4,29)                                           1 	(obj:0)
d11(5,31)                                           1 	(obj:0)
d11(5,33)                                           1 	(obj:0)
d11(5,34)                                           1 	(obj:0)
d11(5,35)                                           1 	(obj:0)
d11(5,37)                                           1 	(obj:0)
d11(5,38)                                           1 	(obj:0)
d11(5,39)                                           1 	(obj:0)
d11(5,41)                                           1 	(obj:0)
d11(5,42)                                           1 	(obj:0)
d11(5,43)                                           1 	(obj:0)
d11(5,44)                                           1 	(obj:0)
d11(5,45)                                           1 	(obj:0)
d11(5,47)                                           1 	(obj:0)
d11(5,49)                                           1 	(obj:0)
d11(5,51)                                           1 	(obj:0)
d11(5,53)                                           1 	(obj:0)
d11(5,54)                                           1 	(obj:0)
d11(5,55)                                           1 	(obj:0)
d11(5,56)                                           1 	(obj:0)
d11(5,57)                                           1 	(obj:0)
d11(5,59)                                           1 	(obj:0)
d11(5,61)                                           1 	(obj:0)
d11(5,62)                                           1 	(obj:0)
d12(1,2)                                            1 	(obj:0)
d12(3,8)                                            1 	(obj:0)
d12(3,10)                                           1 	(obj:0)
d12(3,12)                                           1 	(obj:0)
d12(3,14)                                           1 	(obj:0)
d12(4,16)                                           1 	(obj:0)
d12(4,18)                                           1 	(obj:0)
d12(4,20)                                           1 	(obj:0)
d12(4,22)                                           1 	(obj:0)
d12(4,24)                                           1 	(obj:0)
d12(4,26)                                           1 	(obj:0)
d12(4,28)                                           1 	(obj:0)
d12(4,30)                                           1 	(obj:0)
d12(6,64)                                           1 	(obj:0)
d12(6,66)                                           1 	(obj:0)
d12(6,68)                                           1 	(obj:0)
d12(6,70)                                           1 	(obj:0)
d12(6,72)                                           1 	(obj:0)
d12(6,74)                                           1 	(obj:0)
d12(6,75)                                           1 	(obj:0)
d12(6,76)                                           1 	(obj:0)
d12(6,77)                                           1 	(obj:0)
d12(6,78)                                           1 	(obj:0)
d12(6,80)                                           1 	(obj:0)
d12(6,82)                                           1 	(obj:0)
d12(6,84)                                           1 	(obj:0)
d12(6,86)                                           1 	(obj:0)
d12(6,88)                                           1 	(obj:0)
d12(6,90)                                           1 	(obj:0)
d12(6,92)                                           1 	(obj:0)
d12(6,94)                                           1 	(obj:0)
d12(6,96)                                           1 	(obj:0)
d12(6,98)                                           1 	(obj:0)
d12(6,100)                                          1 	(obj:0)
d12(6,102)                                          1 	(obj:0)
d12(6,104)                                          1 	(obj:0)
d12(6,106)                                          1 	(obj:0)
d12(6,108)                                          1 	(obj:0)
d12(6,110)                                          1 	(obj:0)
d12(6,112)                                          1 	(obj:0)
d12(6,114)                                          1 	(obj:0)
d12(6,116)                                          1 	(obj:0)
d12(6,118)                                          1 	(obj:0)
d12(6,120)                                          1 	(obj:0)
d12(6,122)                                          1 	(obj:0)
d12(6,123)                                          1 	(obj:0)
d12(6,124)                                          1 	(obj:0)
d12(6,125)                                          1 	(obj:0)
d12(6,126)                                          1 	(obj:0)
d21(4,15)                                           1 	(obj:0)
d21(5,31)                                           1 	(obj:0)
d21(5,32)                                           1 	(obj:0)
d21(5,33)                                           1 	(obj:0)
d21(5,34)                                           1 	(obj:0)
d21(5,35)                                           1 	(obj:0)
d21(5,36)                                           1 	(obj:0)
d21(5,37)                                           1 	(obj:0)
d21(5,39)                                           1 	(obj:0)
d21(5,40)                                           1 	(obj:0)
d21(5,41)                                           1 	(obj:0)
d21(5,43)                                           1 	(obj:0)
d21(5,47)                                           1 	(obj:0)
d21(5,48)                                           1 	(obj:0)
d21(5,49)                                           1 	(obj:0)
d21(5,51)                                           1 	(obj:0)
d21(5,55)                                           1 	(obj:0)
d21(6,63)                                           1 	(obj:0)
d21(6,64)                                           1 	(obj:0)
d21(6,65)                                           1 	(obj:0)
d21(6,66)                                           1 	(obj:0)
d21(6,67)                                           1 	(obj:0)
d21(6,68)                                           1 	(obj:0)
d21(6,69)                                           1 	(obj:0)
d21(6,71)                                           1 	(obj:0)
d21(6,72)                                           1 	(obj:0)
d21(6,73)                                           1 	(obj:0)
d21(6,75)                                           1 	(obj:0)
d21(6,76)                                           1 	(obj:0)
d21(6,79)                                           1 	(obj:0)
d21(6,80)                                           1 	(obj:0)
d21(6,81)                                           1 	(obj:0)
d21(6,83)                                           1 	(obj:0)
d21(6,87)                                           1 	(obj:0)
d21(6,95)                                           1 	(obj:0)
d21(6,96)                                           1 	(obj:0)
d21(6,97)                                           1 	(obj:0)
d21(6,99)                                           1 	(obj:0)
d21(6,100)                                          1 	(obj:0)
d21(6,103)                                          1 	(obj:0)
d21(6,104)                                          1 	(obj:0)
d21(6,107)                                          1 	(obj:0)
d21(6,111)                                          1 	(obj:0)
y2(6,100)                            1492.42490899994 	(obj:0)
y2(6,102)                            1492.42490899994 	(obj:0)
y2(6,104)                            1492.42490899994 	(obj:0)
y2(6,106)                            1492.42490899994 	(obj:0)
y2(6,108)                            1492.42490899994 	(obj:0)
y2(6,110)                            1492.42490899994 	(obj:0)
y2(6,112)                            1492.42490899994 	(obj:0)
y2(6,114)                            1492.42490899994 	(obj:0)
y2(6,116)                            1492.42490899994 	(obj:0)
y2(6,118)                            1492.42490899994 	(obj:0)
y2(6,120)                            1492.42490899994 	(obj:0)
y2(6,122)                            1492.42490899994 	(obj:0)
y2(6,124)                            1492.42490899994 	(obj:0)
y2(6,126)                            1492.42490899994 	(obj:0)
STE(1,1)                                        11592 	(obj:0)
STE(0,0)                                        12600 	(obj:0)
STE(1,2)                             12908.2140858765 	(obj:0)
STE(2,3)                             6219.72975174763 	(obj:0)
STE(2,4)                             7877.97965063645 	(obj:0)
STE(2,5)                             7535.94383762414 	(obj:0)
STE(2,6)                             9194.19373651295 	(obj:0)
STE(3,7)                             3732.66794213986 	(obj:0)
STE(3,8)                             5211.72975174763 	(obj:0)
STE(3,9)                             5390.91784102868 	(obj:0)
STE(3,10)                            6869.97965063645 	(obj:0)
STE(3,11)                            5048.88202801636 	(obj:0)
STE(3,12)                            6527.94383762414 	(obj:0)
STE(3,13)                            6707.13192690518 	(obj:0)
STE(3,14)                            8186.19373651296 	(obj:0)
STE(4,15)                            1801.98225057358 	(obj:0)
STE(4,16)                            3219.78591412352 	(obj:0)
STE(4,17)                            3281.04406018135 	(obj:0)
STE(4,18)                            4698.84772373129 	(obj:0)
STE(4,19)                             3460.2321494624 	(obj:0)
STE(4,20)                            4878.03581301234 	(obj:0)
STE(4,21)                            4939.29395907017 	(obj:0)
STE(4,22)                            6357.09762262011 	(obj:0)
STE(4,23)                            3118.19633645009 	(obj:0)
STE(4,24)                            4536.00000000003 	(obj:0)
STE(4,25)                            4597.25814605786 	(obj:0)
STE(4,26)                             6015.0618096078 	(obj:0)
STE(4,27)                            4776.44623533891 	(obj:0)
STE(4,28)                            6194.24989888884 	(obj:0)
STE(4,29)                            6255.50804494668 	(obj:0)
STE(4,30)                            7673.31170849662 	(obj:0)
STE(5,31)                           -864.267648315265 	(obj:0)
STE(5,32)                             793.98225057358 	(obj:0)
STE(5,33)                            553.536015234673 	(obj:0)
STE(5,34)                            2211.78591412352 	(obj:0)
STE(5,35)                            614.794161292507 	(obj:0)
STE(5,36)                            2273.04406018135 	(obj:0)
STE(5,37)                            2032.59782484245 	(obj:0)
STE(5,38)                            3690.84772373129 	(obj:0)
STE(5,39)                            793.982250573551 	(obj:0)
STE(5,40)                             2452.2321494624 	(obj:0)
STE(5,41)                            2211.78591412349 	(obj:0)
STE(5,42)                            3870.03581301234 	(obj:0)
STE(5,43)                            2273.04406018132 	(obj:0)
STE(5,44)                            3931.29395907017 	(obj:0)
STE(5,45)                            3690.84772373126 	(obj:0)
STE(5,46)                            5349.09762262011 	(obj:0)
STE(5,47)                            451.946437561242 	(obj:0)
STE(5,48)                            2110.19633645009 	(obj:0)
STE(5,49)                            1869.75010111118 	(obj:0)
STE(5,50)                            3528.00000000003 	(obj:0)
STE(5,51)                            1931.00824716901 	(obj:0)
STE(5,52)                            3589.25814605786 	(obj:0)
STE(5,53)                            3348.81191071895 	(obj:0)
STE(5,54)                             5007.0618096078 	(obj:0)
STE(5,55)                            2110.19633645006 	(obj:0)
STE(5,56)                            3768.44623533891 	(obj:0)
STE(5,57)                                        3528 	(obj:0)
STE(5,58)                            5186.24989888884 	(obj:0)
STE(5,59)                            3589.25814605783 	(obj:0)
STE(5,60)                            5247.50804494668 	(obj:0)
STE(5,61)                            5007.06180960777 	(obj:0)
STE(5,62)                            6665.31170849662 	(obj:0)
STE(6,63)                           -1872.26764831527 	(obj:0)
STE(6,64)                           -454.463984765326 	(obj:0)
STE(6,65)                            -214.01774942642 	(obj:0)
STE(6,66)                            1203.78591412352 	(obj:0)
STE(6,67)                           -454.463984765327 	(obj:0)
STE(6,68)                            963.339678784612 	(obj:0)
STE(6,69)                            1203.78591412352 	(obj:0)
STE(6,70)                            2621.58957767346 	(obj:0)
STE(6,71)                           -393.205838707493 	(obj:0)
STE(6,72)                            1024.59782484245 	(obj:0)
STE(6,73)                            1265.04406018135 	(obj:0)
STE(6,74)                            2682.84772373129 	(obj:0)
STE(6,75)                            1024.59782484245 	(obj:0)
STE(6,76)                            2442.40148839238 	(obj:0)
STE(6,77)                            2682.84772373129 	(obj:0)
STE(6,78)                            4100.65138728123 	(obj:0)
STE(6,79)                           -214.017749426449 	(obj:0)
STE(6,80)                            1203.78591412349 	(obj:0)
STE(6,81)                             1444.2321494624 	(obj:0)
STE(6,82)                            2862.03581301234 	(obj:0)
STE(6,83)                            1203.78591412349 	(obj:0)
STE(6,84)                            2621.58957767343 	(obj:0)
STE(6,85)                            2862.03581301234 	(obj:0)
STE(6,86)                            4279.83947656228 	(obj:0)
STE(6,87)                            1265.04406018132 	(obj:0)
STE(6,88)                            2682.84772373126 	(obj:0)
STE(6,89)                            2923.29395907017 	(obj:0)
STE(6,90)                            4341.09762262011 	(obj:0)
STE(6,91)                            2682.84772373126 	(obj:0)
STE(6,92)                             4100.6513872812 	(obj:0)
STE(6,93)                            4341.09762262011 	(obj:0)
STE(6,94)                            5758.90128617005 	(obj:0)
STE(6,95)                           -556.053562438758 	(obj:0)
STE(6,96)                             861.75010111118 	(obj:0)
STE(6,97)                            1102.19633645009 	(obj:0)
STE(6,98)                            2520.00000000003 	(obj:0)
STE(6,99)                             861.75010111118 	(obj:0)
STE(6,100)                           2279.55376466112 	(obj:0)
STE(6,101)                           2520.00000000003 	(obj:0)
STE(6,102)                           3937.80366354996 	(obj:0)
STE(6,103)                           923.008247169014 	(obj:0)
STE(6,104)                           2340.81191071895 	(obj:0)
STE(6,105)                           2581.25814605786 	(obj:0)
STE(6,106)                            3999.0618096078 	(obj:0)
STE(6,107)                           2340.81191071895 	(obj:0)
STE(6,108)                           3758.61557426889 	(obj:0)
STE(6,109)                            3999.0618096078 	(obj:0)
STE(6,110)                           5416.86547315774 	(obj:0)
STE(6,111)                           1102.19633645006 	(obj:0)
STE(6,112)                                       2520 	(obj:0)
STE(6,113)                           2760.44623533891 	(obj:0)
STE(6,114)                           4178.24989888885 	(obj:0)
STE(6,115)                                       2520 	(obj:0)
STE(6,116)                           3937.80366354994 	(obj:0)
STE(6,117)                           4178.24989888884 	(obj:0)
STE(6,118)                           5596.05356243878 	(obj:0)
STE(6,119)                           2581.25814605783 	(obj:0)
STE(6,120)                           3999.06180960777 	(obj:0)
STE(6,121)                           4239.50804494668 	(obj:0)
STE(6,122)                           5657.31170849662 	(obj:0)
STE(6,123)                           3999.06180960777 	(obj:0)
STE(6,124)                           5416.86547315771 	(obj:0)
STE(6,125)                           5657.31170849662 	(obj:0)
STE(6,126)                           7075.11537204655 	(obj:0)
BG(5)                                4196.29249897959 	(obj:10)
BG(6)                                2568.57033333337 	(obj:10)
WB(1)                                 586.14183689953 	(obj:0)
AVE(1)                               3259.55177567504 	(obj:0)
AVE(2)                               3259.55588804169 	(obj:0)
AVE(3)                               3579.36165209166 	(obj:0)
WB(4)                                58.5914150606682 	(obj:0)
AVE(4)                               3579.36576445831 	(obj:0)
WB(5)                                3472.77007794174 	(obj:0)
AVE(5)                               3472.77007794174 	(obj:0)
WB(6)                                 3046.3618950668 	(obj:0)
AVE(6)                                3046.3618950668 	(obj:0)
WG(1)                                2673.40993877551 	(obj:10)
WG(2)                                3259.55588804169 	(obj:10)
WG(3)                                3579.36165209166 	(obj:10)
WG(4)                                3520.77434939764 	(obj:10)
BG(2)                                3421.85733994522 	(obj:10)
BG(3)                                452.370356731844 	(obj:10)
y1(2,3)                              3927.84322342713 	(obj:0)
y1(2,4)                               2435.4183144272 	(obj:0)
y1(2,5)                              3927.84322342713 	(obj:0)
y1(2,6)                               2435.4183144272 	(obj:0)
y1(3,7)                                1331.155628647 	(obj:0)
y1(3,9)                                1331.155628647 	(obj:0)
y1(3,11)                               1331.155628647 	(obj:0)
y1(3,13)                               1331.155628647 	(obj:0)
y1(4,15)                              830.41712240965 	(obj:0)
y1(4,17)                              830.41712240965 	(obj:0)
y1(4,19)                              830.41712240965 	(obj:0)
y1(4,21)                              830.41712240965 	(obj:0)
y1(4,23)                              830.41712240965 	(obj:0)
y1(4,25)                              830.41712240965 	(obj:0)
y1(4,27)                              830.41712240965 	(obj:0)
y1(4,29)                              830.41712240965 	(obj:0)
y1(5,31)                             1492.42490899996 	(obj:0)
y1(5,33)                             1492.42490899996 	(obj:0)
y1(5,35)                             1492.42490899996 	(obj:0)
y1(5,37)                             1492.42490899996 	(obj:0)
y1(5,39)                             1492.42490899996 	(obj:0)
y1(5,41)                             1492.42490899996 	(obj:0)
y1(5,43)                             1492.42490899996 	(obj:0)
y1(5,45)                             1492.42490899996 	(obj:0)
y1(5,47)                             1492.42490899996 	(obj:0)
y1(5,49)                             1492.42490899996 	(obj:0)
y1(5,51)                             1492.42490899996 	(obj:0)
y1(5,53)                             1492.42490899996 	(obj:0)
y1(5,55)                             1492.42490899996 	(obj:0)
y1(5,57)                             1492.42490899996 	(obj:0)
y1(5,59)                             1492.42490899996 	(obj:0)
y1(5,61)                             1492.42490899996 	(obj:0)
y2(1,2)                              1385.48851144895 	(obj:0)
y2(4,16)                             521.176812614379 	(obj:0)
y2(4,18)                              521.17681261438 	(obj:0)
y2(4,20)                              521.17681261438 	(obj:0)
y2(4,22)                              521.17681261438 	(obj:0)
y2(4,24)                              521.17681261438 	(obj:0)
y2(4,26)                             521.176812614379 	(obj:0)
y2(4,28)                              521.17681261438 	(obj:0)
y2(4,30)                              521.17681261438 	(obj:0)
y2(6,64)                             1492.42490899994 	(obj:0)
y2(6,66)                             1492.42490899994 	(obj:0)
y2(6,68)                             1492.42490899994 	(obj:0)
y2(6,70)                             1492.42490899994 	(obj:0)
y2(6,72)                             1492.42490899994 	(obj:0)
y2(6,74)                             1492.42490899994 	(obj:0)
y2(6,76)                             1492.42490899994 	(obj:0)
y2(6,78)                             1492.42490899994 	(obj:0)
y2(6,80)                             1492.42490899994 	(obj:0)
y2(6,82)                             1492.42490899994 	(obj:0)
y2(6,84)                             1492.42490899994 	(obj:0)
y2(6,86)                             1492.42490899994 	(obj:0)
y2(6,88)                             1492.42490899994 	(obj:0)
y2(6,90)                             1492.42490899994 	(obj:0)
y2(6,92)                             1492.42490899994 	(obj:0)
y2(6,94)                             1492.42490899994 	(obj:0)
y2(6,96)                             1492.42490899994 	(obj:0)
y2(6,98)                             1492.42490899994 	(obj:0)
